Copyright (C) 2013-2015, Filipe Brandao
Build (method = -2)
  #dp: 80983
  Step-3' Graph: 404 vertices and 24596 arcs (0.17s)
  Step-4' Graph: 366 vertices and 24520 arcs (0.17s)
  #V4/#V3 = 0.91
  #A4/#A3 = 1.00
Ready! (0.17s)
Optimize a model with 766 rows, 24521 columns and 72837 nonzeros
Presolve removed 211 rows and 247 columns
Presolve time: 0.12s
Presolved: 555 rows, 24274 columns, 71148 nonzeros
Variable types: 0 continuous, 24274 integer (7717 binary)
Found heuristic solution: objective 866.0000000
Optimize a model with 555 rows, 24274 columns and 71148 nonzeros
Presolved: 555 rows, 24274 columns, 71148 nonzeros

Root barrier log...

Ordering time: 0.01s

Barrier statistics:
 AA' NZ     : 3.750e+04
 Factor NZ  : 7.312e+04 (roughly 10 MBytes of memory)
 Factor Ops : 1.437e+07 (less than 1 second per iteration)
 Threads    : 1

                  Objective                Residual
Iter       Primal          Dual         Primal    Dual     Compl     Time
   0   4.61902775e+04 -5.85534056e+05  1.11e+06 1.73e-01  1.33e+02     0s
   1   1.24840414e+04 -1.22635226e+05  1.40e+05 9.99e-16  1.77e+01     0s
   2   2.82176807e+03 -3.55289300e+04  1.49e+04 2.89e-15  2.28e+00     0s
   3   1.43508946e+03 -9.79572257e+03  1.28e+03 3.11e-15  3.30e-01     0s
   4   1.00046417e+03 -2.69560262e+03  2.27e+02 1.58e-15  8.99e-02     0s
   5   9.32020103e+02 -1.35606882e+03  1.81e+02 1.19e-15  5.70e-02     0s
   6   7.86415136e+02 -5.11580146e+02  8.79e+01 9.85e-16  3.10e-02     0s
   7   6.70144806e+02  3.73860106e+01  3.08e+01 8.97e-16  1.43e-02     0s
   8   6.57288430e+02  9.00428821e+01  2.65e+01 9.19e-16  1.27e-02     0s
   9   6.36282049e+02  2.02846635e+02  1.92e+01 9.99e-16  9.62e-03     0s
  10   5.87463904e+02  3.20723077e+02  8.25e+00 9.77e-16  5.76e-03     0s
  11   5.47581784e+02  4.22820448e+02  1.78e+00 8.88e-16  2.62e-03     0s
  12   5.39208612e+02  4.95931804e+02  8.21e-01 1.11e-15  9.18e-04     0s
  13   5.34724629e+02  5.28982778e+02  3.13e-01 8.88e-16  1.29e-04     0s
  14   5.32141170e+02  5.31680118e+02  1.61e-02 9.99e-16  1.01e-05     0s
  15   5.32000181e+02  5.31999664e+02  6.77e-12 1.22e-15  1.06e-08     0s
  16   5.32000000e+02  5.32000000e+02  8.61e-11 8.67e-16  1.06e-11     0s
  17   5.32000000e+02  5.32000000e+02  2.07e-12 8.42e-16  1.06e-14     0s

Barrier solved model in 17 iterations and 0.21 seconds
Optimal objective 5.32000000e+02


Root relaxation: objective 5.320000e+02, 4766 iterations, 0.23 seconds

    Nodes    |    Current Node    |     Objective Bounds      |     Work
 Expl Unexpl |  Obj  Depth IntInf | Incumbent    BestBd   Gap | It/Node Time

*    0     0               0     532.0000000  532.00000  0.00%     -    0s

Explored 0 nodes (5125 simplex iterations) in 0.55 seconds
Thread count was 1 (of 4 available processors)

Optimal solution found (tolerance 0.00e+00)
Best objective 5.320000000000e+02, best bound 5.320000000000e+02, gap 0.0%
Preprocessing time: 0.21 seconds
Gurobi run time: 0.55 seconds
Total run time: 0.76 seconds
Objective: 532
Solution:
1 x [i=1, i=400]
2 x [i=2, i=399]
1 x [i=2, i=400]
5 x [i=3]
4 x [i=4]
1 x [i=4, i=398]
3 x [i=5, i=397]
3 x [i=6, i=396]
1 x [i=6, i=400]
5 x [i=7, i=395]
2 x [i=8, i=394]
2 x [i=9, i=393]
3 x [i=10, i=392]
2 x [i=11, i=391]
1 x [i=11, i=392]
1 x [i=12, i=392]
1 x [i=13, i=388]
2 x [i=13, i=389]
4 x [i=14, i=388]
1 x [i=15, i=386]
1 x [i=16, i=385]
1 x [i=17, i=386]
2 x [i=18, i=383]
1 x [i=18, i=387]
3 x [i=19, i=382]
2 x [i=20, i=381]
4 x [i=21, i=389]
1 x [i=22, i=381]
4 x [i=23, i=390]
2 x [i=24, i=378]
2 x [i=25, i=384]
4 x [i=26]
2 x [i=27, i=376]
1 x [i=28]
3 x [i=28, i=377]
3 x [i=29, i=379]
3 x [i=30, i=373]
1 x [i=30, i=374]
3 x [i=31, i=371]
1 x [i=32, i=375]
3 x [i=33, i=380]
2 x [i=34, i=372]
6 x [i=35]
1 x [i=36, i=369]
1 x [i=37, i=369]
2 x [i=38, i=365]
1 x [i=38, i=370]
1 x [i=39, i=393]
4 x [i=40, i=367]
1 x [i=41, i=395]
5 x [i=42]
1 x [i=43, i=360]
1 x [i=44, i=359]
3 x [i=45, i=358]
5 x [i=46]
3 x [i=47, i=355]
5 x [i=48]
2 x [i=49, i=353]
5 x [i=50, i=353]
1 x [i=51, i=350]
3 x [i=52, i=356]
5 x [i=53, i=348]
2 x [i=54, i=351]
4 x [i=55, i=349]
3 x [i=56, i=347]
4 x [i=57, i=368]
1 x [i=58, i=343]
2 x [i=59, i=352]
3 x [i=60, i=342]
2 x [i=61, i=354]
1 x [i=62, i=344]
3 x [i=63, i=341]
6 x [i=64]
2 x [i=65, i=362]
1 x [i=66, i=337]
3 x [i=66, i=338]
2 x [i=67, i=364]
3 x [i=68, i=339]
5 x [i=69, i=336]
2 x [i=70, i=333]
2 x [i=71, i=332]
6 x [i=72]
2 x [i=73, i=331]
1 x [i=74, i=330]
1 x [i=75, i=335]
1 x [i=76, i=328]
2 x [i=77, i=366]
1 x [i=78, i=327]
1 x [i=79, i=340]
2 x [i=80, i=323]
3 x [i=81, i=329]
5 x [i=82, i=346]
2 x [i=83, i=322]
2 x [i=84, i=320]
2 x [i=85, i=324]
4 x [i=86, i=325]
3 x [i=87, i=319]
1 x [i=88, i=317]
1 x [i=89, i=318]
4 x [i=89, i=321]
2 x [i=90, i=316]
2 x [i=91, i=326]
2 x [i=92, i=313]
1 x [i=93, i=314]
3 x [i=94, i=334]
1 x [i=95, i=345]
1 x [i=96, i=346]
5 x [i=97, i=309]
2 x [i=98, i=306]
2 x [i=99, i=310]
1 x [i=100, i=305]
2 x [i=101, i=311]
1 x [i=102, i=304]
4 x [i=103, i=315]
2 x [i=104, i=312]
3 x [i=105, i=361]
1 x [i=106, i=300]
1 x [i=107, i=307]
1 x [i=108, i=298]
1 x [i=109, i=297]
3 x [i=109, i=299]
3 x [i=110, i=363]
2 x [i=111, i=301]
3 x [i=112, i=296]
1 x [i=112, i=308]
2 x [i=113, i=295]
1 x [i=114, i=294]
3 x [i=114, i=302]
1 x [i=115, i=293]
1 x [i=116, i=292]
3 x [i=116, i=303]
3 x [i=117, i=291]
3 x [i=118, i=290]
1 x [i=119, i=292]
2 x [i=120, i=289]
1 x [i=120, i=357]
2 x [i=121, i=288]
1 x [i=122]
3 x [i=123, i=287]
1 x [i=124, i=285]
2 x [i=125, i=284]
5 x [i=126]
2 x [i=127, i=286]
2 x [i=128, i=287]
4 x [i=129, i=282]
2 x [i=130, i=281]
1 x [i=131, i=279]
3 x [i=131, i=280]
5 x [i=132]
1 x [i=133, i=278]
2 x [i=134, i=277]
1 x [i=135, i=283]
1 x [i=136, i=276]
2 x [i=136, i=278]
1 x [i=137]
3 x [i=137, i=274]
1 x [i=138]
2 x [i=139, i=275]
1 x [i=140, i=275]
3 x [i=141, i=272]
2 x [i=142, i=271]
3 x [i=142, i=273]
2 x [i=143]
1 x [i=144]
2 x [i=145, i=269]
1 x [i=145, i=270]
1 x [i=146]
2 x [i=146, i=268]
3 x [i=147, i=267]
2 x [i=148, i=266]
3 x [i=149, i=265]
1 x [i=150, i=265]
4 x [i=151, i=262]
1 x [i=152, i=262]
2 x [i=153, i=260]
2 x [i=153, i=261]
1 x [i=153, i=262]
2 x [i=154, i=259]
1 x [i=155, i=258]
1 x [i=156, i=258]
2 x [i=157, i=258]
1 x [i=158, i=256]
2 x [i=159, i=257]
2 x [i=160, i=255]
1 x [i=161, i=254]
1 x [i=161, i=255]
2 x [i=162, i=255]
2 x [i=163, i=252]
2 x [i=163, i=253]
1 x [i=164, i=250]
1 x [i=164, i=252]
1 x [i=165, i=249]
1 x [i=166, i=248]
4 x [i=166, i=249]
1 x [i=167, i=249]
1 x [i=168, i=248]
1 x [i=169, i=246]
1 x [i=169, i=247]
1 x [i=170, i=248]
1 x [i=171, i=245]
1 x [i=172, i=245]
2 x [i=173, i=249]
3 x [i=174, i=244]
2 x [i=175, i=242]
2 x [i=175, i=244]
1 x [i=176, i=241]
1 x [i=176, i=243]
2 x [i=177, i=244]
1 x [i=177, i=247]
1 x [i=178, i=239]
1 x [i=178, i=240]
1 x [i=179, i=247]
1 x [i=180, i=239]
2 x [i=181, i=238]
1 x [i=181, i=239]
1 x [i=182, i=237]
5 x [i=182, i=238]
2 x [i=183, i=235]
3 x [i=183, i=236]
3 x [i=184, i=234]
1 x [i=185, i=237]
3 x [i=186, i=232]
1 x [i=187, i=232]
2 x [i=188, i=230]
1 x [i=188, i=232]
2 x [i=189, i=231]
4 x [i=190, i=229]
2 x [i=191, i=227]
2 x [i=191, i=229]
1 x [i=191, i=230]
1 x [i=192, i=226]
2 x [i=193, i=225]
1 x [i=194, i=225]
1 x [i=195, i=223]
2 x [i=196, i=223]
1 x [i=197, i=221]
1 x [i=197, i=264]
2 x [i=198, i=222]
2 x [i=199, i=218]
1 x [i=199, i=225]
1 x [i=200, i=217]
1 x [i=200, i=221]
1 x [i=200, i=223]
2 x [i=201, i=217]
1 x [i=202, i=220]
1 x [i=203, i=220]
2 x [i=204, i=212]
1 x [i=204, i=213]
1 x [i=204, i=214]
1 x [i=205, i=214]
2 x [i=206, i=215]
2 x [i=207, i=214]
1 x [i=208, i=212]
1 x [i=209, i=209]
1 x [i=210, i=218]
1 x [i=211, i=213]
2 x [i=211, i=216]
1 x [i=211, i=219]
1 x [i=214, i=226]
1 x [i=224, i=228]
1 x [i=228, i=233]
2 x [i=233, i=240]
1 x [i=251, i=259]
1 x [i=259, i=263]
